c This graph is produced by Sof A. Lee
c Experiment on graph colouring using phase coupled oscillators
c Date: 18/02/2008 3:49:46 PM
p edge 10 15
e 1 4
e 1 7
e 1 5
e 2 9
e 2 4
e 2 10
e 3 4
e 3 8
e 3 6
e 5 10
e 5 8
e 6 7
e 6 10
e 7 9
e 8 9
